50
150
99
98
95
89
88
88
87
87
87
87
86
84
84
83
78
77
74
74
73
73
73
72
72
70
68
67
64
64
64
63
63
60
59
58
56
54
51
50
49
49
39
37
37
36
36
36
34
34
31
30
